environments_harbor/cryptominisat_xor_clause_optimization_medium/environment/data/cnf_files/random_x.cnf
c CNF file with random clauses
c This file contains various random 3-SAT and 2-SAT clauses
c Generated for testing purposes
c No XOR constraint patterns should be present
c
p cnf 8 18
1 2 3 0
-1 4 0
2 -3 5 0
-2 6 0
3 -4 7 0
-3 8 0
4 5 -6 0
-4 -7 0
5 6 7 8 0
-5 -8 0
6 -7 1 0
-6 2 0
7 8 -1 0
-7 -2 3 0
8 1 -4 0
-8 -3 5 0
1 -5 6 0
2 4 -6 0